50

98 11 297
97 30 416
96 13 308
95 24 435
95 19 326
94 14 297
93 7 375
93 24 409
93 8 371
93 27 372
91 20 277
90 11 302
87 22 422
87 20 406
80 19 270
80 8 313
80 20 395
77 8 324
72 3 405
71 13 372
68 17 260
68 16 362
67 2 339
64 10 416
63 8 438
62 18 316
60 2 332
60 9 333
60 5 291
57 11 441
57 9 415
56 9 389
54 5 360
53 9 448
53 13 207
52 9 437
49 9 160
47 7 216
45 12 427
43 1 269
41 6 166
41 11 445
39 5 246
38 5 432
38 10 392
37 11 195
37 12 305
36 1 171
35 7 252
31 4 391
